20191231 70600.00 44700.00
20180622 70600.00 40800.00
20171221 70595.43 40758.95
20170707 66511.08 40758.95
20161215 44406.70 26941.57
20160720 44406.70 26867.22
20160621 44407.30 26857.32
20151215 43555.15 26855.20
